# Solution for model GasLib-40
# Objective value = 1.6031120471278197e+01
loadshed[innode_1] 0
loadshed[innode_2] 0
loadshed[innode_3] 0
loadshed[innode_4] 0
loadshed[innode_5] 0
loadshed[innode_6] 0
loadshed[innode_7] 0
loadshed[innode_8] 0
loadshed[source_1] -0.20154135331513
loadshed[source_2] -3.2440826262870592e-02
loadshed[source_3] 3.3538702683752475e-01
loadshed[sink_1] 0
loadshed[sink_2] 0
loadshed[sink_3] 0
loadshed[sink_4] 0
loadshed[sink_5] 0
loadshed[sink_6] 0
loadshed[sink_7] 0
loadshed[sink_8] 0
loadshed[sink_9] 0
loadshed[sink_10] 0
loadshed[sink_11] 0
loadshed[sink_12] 9.8024685684248836e-01
loadshed[sink_13] 0
loadshed[sink_14] 0
loadshed[sink_15] 0
loadshed[sink_16] 0
loadshed[sink_17] 0
loadshed[sink_18] 0
loadshed[sink_19] 0
loadshed[sink_20] 0
loadshed[sink_21] 0
loadshed[sink_22] 0
loadshed[sink_23] 0
loadshed[sink_24] 0
loadshed[sink_25] 0
loadshed[sink_26] 0
loadshed[sink_27] 0
loadshed[sink_28] 0
loadshed[sink_29] 0
flow[source_1,sink_3] 1.8995200630707592e+02
flow[innode_1,sink_16] 1.6354166666666970e+01
flow[innode_6,sink_13] 9.4103171246967463e+00
flow[sink_13,sink_14] -6.9438495419699215e+00
flow[sink_14,sink_10] -2.3298016208636682e+01
flow[sink_25,sink_26] 1.8705641524088594e+02
flow[sink_26,sink_9] 1.8021887952872365e+02
flow[sink_9,sink_18] 163.864712862057
flow[sink_26,sink_4] -9.5166309545040235e+00
flow[sink_4,sink_20] -2.5870797621170595e+01
flow[sink_18,sink_6] 1.4751054619539033e+02
flow[sink_25,innode_8] -1.5724367297373954e+02
flow[sink_6,sink_7] 98.4480461953899
flow[sink_6,sink_22] 3.2708333333333641e+01
flow[sink_7,sink_24] 3.3031379528721807e+01
flow[sink_22,sink_1] 1.6354166666666970e+01
flow[sink_24,sink_21] 1.6677212862055139e+01
flow[sink_21,sink_12] 3.2304619538847229e-01
flow[sink_7,sink_5] 4.9062500000001677e+01
flow[sink_5,sink_17] 3.2708333333335005e+01
flow[sink_17,sink_4] 0
flow[sink_17,sink_8] 1.6354166666668334e+01
flow[sink_3,sink_23] 16.3541666666697
flow[sink_8,sink_20] 0
flow[sink_25,sink_20] 4.2224964287837338e+01
flow[sink_25,sink_15] -9.7802190346347686e+01
flow[sink_15,sink_29] -6.3542856737713919e+01
flow[sink_29,sink_28] 1.6354166666667879e+01
flow[sink_29,sink_2] 6.6967666941967082e+01
flow[sink_2,sink_15] 5.0613500275300453e+01
flow[sink_29,innode_7] -1.6321885701301562e+02
flow[innode_4,sink_19] 4.0142728833051251e+01
flow[sink_19,innode_3] 7.2360516208637250e+01
flow[innode_4,innode_5] 6.4926120708919143e+01
flow[sink_27,innode_5] -6.4926120708919143e+01
flow[sink_27,sink_19] 4.8571954042252514e+01
flow[sink_10,sink_11] 3.2708333333333641e+01
flow[sink_10,innode_2] 0
flow[sink_10,innode_3] -7.2360516208637250e+01
flow[innode_6,sink_25] -9.4103171246967463e+00
flow[sink_11,innode_1] 1.6354166666666970e+01
flow[sink_19,innode_2] 0
flow[source_3,innode_4] 1.0506884954197048e+02
flow[source_2,innode_7] 1.6321885701301562e+02
flow[sink_3,innode_8] 1.5724367297373954e+02
pressure[innode_1] 7.5222551805461691e+01
pressure[innode_2] 7.5374253113065237e+01
pressure[innode_3] 7.9226731601512583e+01
pressure[innode_4] 81.01325
pressure[innode_5] 8.0968590390611453e+01
pressure[innode_6] 7.4311740555670809e+01
pressure[innode_7] 81.01325
pressure[innode_8] 8.0378313007212014e+01
pressure[source_1] 81.01325
pressure[source_2] 81.01325
pressure[source_3] 81.01325
pressure[sink_1] 3.8381739907870454e+01
pressure[sink_2] 74.9514184028034
pressure[sink_3] 8.0378313007212014e+01
pressure[sink_4] 6.2347436172092038e+01
pressure[sink_5] 1.8726650427936477e+01
pressure[sink_6] 4.0482817518257825e+01
pressure[sink_7] 3.9131360508620453e+01
pressure[sink_8] 1.5673030821813310e+01
pressure[sink_9] 5.0350902010477625e+01
pressure[sink_10] 7.5374253113065237e+01
pressure[sink_11] 7.5222551805461691e+01
pressure[sink_12] 1.01325
pressure[sink_13] 7.4259863049972438e+01
pressure[sink_14] 7.4272289660212977e+01
pressure[sink_15] 7.4786176479440329e+01
pressure[sink_16] 7.4200901970644011e+01
pressure[sink_17] 1.6290116017226936e+01
pressure[sink_18] 4.4421788298288540e+01
pressure[sink_19] 7.9386965770717055e+01
pressure[sink_20] 64.2454381782248
pressure[sink_21] 1.1282075167063610e+00
pressure[sink_22] 3.9445509050225468e+01
pressure[sink_23] 8.0213594995552228e+01
pressure[sink_24] 1.3128921541749055e+00
pressure[sink_25] 7.4311740555670809e+01
pressure[sink_26] 6.1137467082395958e+01
pressure[sink_27] 8.0429823559298782e+01
pressure[sink_28] 7.6352502710422385e+01
pressure[sink_29] 7.6647784984039561e+01
interdiction[source_1,sink_3] 0
interdiction[innode_1,sink_16] 0
interdiction[innode_6,sink_13] 0
interdiction[sink_13,sink_14] 0
interdiction[sink_14,sink_10] 0
interdiction[sink_25,sink_26] 0
interdiction[sink_26,sink_9] 0
interdiction[sink_9,sink_18] 0
interdiction[sink_26,sink_4] 0
interdiction[sink_4,sink_20] 0
interdiction[sink_18,sink_6] 0
interdiction[sink_25,innode_8] 0
interdiction[sink_6,sink_7] 0
interdiction[sink_6,sink_22] 0
interdiction[sink_7,sink_24] 0
interdiction[sink_22,sink_1] 0
interdiction[sink_24,sink_21] 0
interdiction[sink_21,sink_12] 0
interdiction[sink_7,sink_5] 0
interdiction[sink_5,sink_17] 0
interdiction[sink_17,sink_4] 1
interdiction[sink_17,sink_8] 0
interdiction[sink_3,sink_23] 0
interdiction[sink_8,sink_20] 1
interdiction[sink_25,sink_20] 0
interdiction[sink_25,sink_15] 0
interdiction[sink_15,sink_29] 0
interdiction[sink_29,sink_28] 0
interdiction[sink_29,sink_2] 0
interdiction[sink_2,sink_15] 0
interdiction[sink_29,innode_7] 0
interdiction[innode_4,sink_19] 0
interdiction[sink_19,innode_3] 0
interdiction[innode_4,innode_5] 0
interdiction[sink_27,innode_5] 0
interdiction[sink_27,sink_19] 0
interdiction[sink_10,sink_11] 0
interdiction[sink_10,innode_2] 0
interdiction[sink_10,innode_3] 0
interdiction[innode_6,sink_25] 0
interdiction[sink_11,innode_1] 0
interdiction[sink_19,innode_2] 1
interdiction[source_3,innode_4] 0
interdiction[source_2,innode_7] 0
interdiction[sink_3,innode_8] 0
WCcheckFlow[source_1,sink_3] 39
WCcheckFlow[innode_1,sink_16] 1
WCcheckFlow[innode_6,sink_13] 13
WCcheckFlow[sink_13,sink_14] 12
WCcheckFlow[sink_14,sink_10] 11
WCcheckFlow[sink_25,sink_26] 15
WCcheckFlow[sink_26,sink_9] 12
WCcheckFlow[sink_9,sink_18] 11
WCcheckFlow[sink_26,sink_4] 2
WCcheckFlow[sink_4,sink_20] 1
WCcheckFlow[sink_18,sink_6] 10
WCcheckFlow[sink_25,innode_8] -36
WCcheckFlow[sink_6,sink_7] 7
WCcheckFlow[sink_6,sink_22] 2
WCcheckFlow[sink_7,sink_24] 3
WCcheckFlow[sink_22,sink_1] 1
WCcheckFlow[sink_24,sink_21] 2
WCcheckFlow[sink_21,sink_12] 1
WCcheckFlow[sink_7,sink_5] 3
WCcheckFlow[sink_5,sink_17] 2
WCcheckFlow[sink_17,sink_4] 0
WCcheckFlow[sink_17,sink_8] 1
WCcheckFlow[sink_3,sink_23] 1
WCcheckFlow[sink_8,sink_20] 0
WCcheckFlow[sink_25,sink_20] 0
WCcheckFlow[sink_25,sink_15] 6
WCcheckFlow[sink_15,sink_29] 5
WCcheckFlow[sink_29,sink_28] 1
WCcheckFlow[sink_29,sink_2] 1
WCcheckFlow[sink_2,sink_15] 0
WCcheckFlow[sink_29,innode_7] 2
WCcheckFlow[innode_4,sink_19] -4
WCcheckFlow[sink_19,innode_3] -5
WCcheckFlow[innode_4,innode_5] 2
WCcheckFlow[sink_27,innode_5] -1
WCcheckFlow[sink_27,sink_19] 0
WCcheckFlow[sink_10,sink_11] 3
WCcheckFlow[sink_10,innode_2] 1
WCcheckFlow[sink_10,innode_3] 6
WCcheckFlow[innode_6,sink_25] -14
WCcheckFlow[sink_11,innode_1] 2
WCcheckFlow[sink_19,innode_2] 0
WCcheckFlow[source_3,innode_4] -1
WCcheckFlow[source_2,innode_7] -1
WCcheckFlow[sink_3,innode_8] 37
